
Gurobi 7.0.2 (linux64) logging started Thu Jun 22 12:58:40 2017


Gurobi 7.0.2 (linux64) logging started Thu Jun 22 12:58:40 2017


Gurobi 7.0.2 (linux64) logging started Thu Jun 22 12:58:41 2017


Gurobi 7.0.2 (linux64) logging started Thu Jun 22 12:58:42 2017


Gurobi 7.0.2 (linux64) logging started Thu Jun 22 12:58:43 2017


Gurobi 7.0.2 (linux64) logging started Thu Jun 22 12:58:44 2017


Gurobi 7.0.2 (linux64) logging started Thu Jun 22 13:00:23 2017


Gurobi 7.0.2 (linux64) logging started Thu Jun 22 13:00:38 2017


Gurobi 7.0.2 (linux64) logging started Thu Jun 22 13:00:53 2017


Gurobi 7.0.2 (linux64) logging started Thu Jun 22 13:01:08 2017


Gurobi 7.0.2 (linux64) logging started Thu Jun 22 13:01:23 2017


Gurobi 7.0.2 (linux64) logging started Thu Jun 22 13:01:38 2017


Gurobi 7.0.2 (linux64) logging started Thu Jun 22 13:01:53 2017


Gurobi 7.0.2 (linux64) logging started Thu Jun 22 13:02:08 2017


Gurobi 7.0.2 (linux64) logging started Thu Jun 22 13:02:23 2017


Gurobi 7.0.2 (linux64) logging started Thu Jun 22 13:02:38 2017


Gurobi 7.0.2 (linux64) logging started Thu Jun 22 13:02:53 2017


Gurobi 7.0.2 (linux64) logging started Thu Jun 22 13:03:08 2017


Gurobi 7.0.2 (linux64) logging started Thu Jun 22 13:03:23 2017


Gurobi 7.0.2 (linux64) logging started Thu Jun 22 13:03:39 2017


Gurobi 7.0.2 (linux64) logging started Thu Jun 22 13:03:53 2017


Gurobi 7.0.2 (linux64) logging started Thu Jun 22 13:04:08 2017


Gurobi 7.0.2 (linux64) logging started Thu Jun 22 13:04:23 2017


Gurobi 7.0.2 (linux64) logging started Thu Jun 22 13:04:38 2017


Gurobi 7.0.2 (linux64) logging started Thu Jun 22 13:04:54 2017


Gurobi 7.0.2 (linux64) logging started Thu Jun 22 13:05:08 2017

Optimize a model with 3341 rows, 74 columns and 95605 nonzeros
Variable types: 0 continuous, 74 integer (74 binary)
Coefficient statistics:
  Matrix range     [1e+00, 1e+00]
  Objective range  [1e+00, 1e+00]
  Bounds range     [1e+00, 1e+00]
  RHS range        [1e+00, 1e+00]
Found heuristic solution: objective 15
Presolve removed 3341 rows and 74 columns
Presolve time: 0.04s
Presolve: All rows and columns removed

Explored 0 nodes (0 simplex iterations) in 0.04 seconds
Thread count was 1 (of 4 available processors)

Solution count 1: 8 
Pool objective bound 8

Optimal solution found (tolerance 1.00e-04)
Best objective 8.000000000000e+00, best bound 8.000000000000e+00, gap 0.0000%

Gurobi 7.0.2 (linux64) logging started Thu Jun 22 13:05:20 2017


Gurobi 7.0.2 (linux64) logging started Thu Jun 22 13:05:36 2017


Gurobi 7.0.2 (linux64) logging started Thu Jun 22 13:05:50 2017

